\ Model matlab
\ LP format - for model browsing. Use MPS format to capture full model detail.
Minimize
 [ 9.05523e-09 C0 * C1 + 9.05523e-09 C2 * C3 ] / 2 
Subject To
 R0: C0 + C2 = 1
 R1: C1 + C3 = 1
Bounds
End
